c SAT Generator for power-law distributed variable frequencies
c -g u -v 20 -c 91 -k 3 -p 2.750000 -b 3.200000 -f /home/schmidt/Devel/ni-kop-sat/data/ensemble/ruf20-91/ruf20-91-83 -u 1 -U 1 -s 2541287674
p cnf 20 91
2 -10 -11 0
-2 8 12 0
1 6 -17 0
2 10 12 0
-8 -13 -15 0
5 -9 -19 0
4 -12 -14 0
-13 -18 20 0
-4 -9 10 0
-7 -11 18 0
2 5 19 0
4 8 11 0
-6 -16 -20 0
-7 8 16 0
1 19 20 0
-5 -9 -19 0
-2 6 18 0
-10 11 -17 0
10 -11 17 0
-2 -5 -11 0
14 15 -16 0
4 13 -16 0
1 -6 18 0
13 15 16 0
-6 -14 -19 0
-1 10 -18 0
-12 15 20 0
1 -2 15 0
-2 -17 -18 0
-7 -13 -19 0
-6 -9 -17 0
1 3 -10 0
-1 -9 -10 0
-2 -13 14 0
12 13 17 0
13 -15 20 0
-3 11 12 0
5 6 -12 0
3 5 15 0
1 -12 19 0
3 9 18 0
-12 -14 20 0
-9 -14 -17 0
-6 -13 17 0
-3 6 -20 0
1 8 13 0
4 17 -18 0
-1 6 -16 0
-5 -6 -12 0
-4 13 19 0
-4 7 15 0
-11 -18 19 0
-1 8 -13 0
-2 3 -5 0
2 -10 20 0
4 -14 20 0
3 -5 7 0
-1 6 -12 0
-3 -4 8 0
-8 9 14 0
-7 10 19 0
1 -8 9 0
3 9 12 0
8 13 17 0
-4 -7 11 0
8 10 12 0
-9 13 15 0
6 -13 -20 0
-5 10 14 0
-1 2 4 0
6 7 20 0
-1 5 13 0
1 -11 -14 0
-2 9 19 0
-5 11 13 0
-7 -8 12 0
-16 -17 -19 0
-4 -11 13 0
-3 4 -15 0
7 15 -18 0
-5 -10 19 0
-2 15 -20 0
2 -5 -10 0
-8 15 17 0
-10 -13 -14 0
-7 -8 18 0
1 -6 -14 0
-12 16 18 0
-4 8 20 0
-9 12 -16 0
-8 -16 19 0
